%mem=170gb
%nproc=40
#p rhf/gen test neo=gen gfinput guess=print 
# 
iop33(3=2,4=2,5=2) iop(5/73=0,5/81=0) nosymm

Protonated Water Tetramer, Eigen Isomer

1,1
H        -0.9780967377    0.0786936142   -0.1794359761
H         0.4206565708   -0.8872251381   -0.1792646775
H         0.5576198507    0.8069562141   -0.1788327328
O         0.0000928514   -0.0005245682   -0.4344434539
H         1.9210789469    2.5102796636   -0.5704689081
H         1.4194179604    2.5913964441    0.8948504781
O         1.4869580689    2.0096685538    0.1296644679
H        -3.1335433296    0.4167074160   -0.5722076272
H        -2.9572482308   -0.0706162778    0.8895237600
O        -2.4845525878    0.2828257096    0.1278937868
H         1.5385605569   -2.5263822060    0.8907044784
H         1.2088506582   -2.9210686443   -0.5724879872
O         0.9973544718   -2.2937071909    0.1281770915

 H     0
 S    1   1.00
       3.258000D-01           1.000000D+00
 S    5   1.00
       3.387000D+01           6.068000D-03
       5.095000D+00           4.530800D-02
       1.159000D+00           2.028220D-01
       3.258000D-01           5.039030D-01
       1.027000D-01           3.834210D-01
 S    1   1.00
       1.027000D-01           1.000000D+00
 P    1   1.00
       1.407000D+00           1.000000D+00
 P    1   1.00
       3.880000D-01           1.000000D+00
 D    1   1.00
       1.057000D+00           1.0000000
 ****
 O     0
 S    10   1.00
       1.533000D+04           5.080000D-04
       2.299000D+03           3.929000D-03
       5.224000D+02           2.024300D-02
       1.473000D+02           7.918100D-02
       4.755000D+01           2.306870D-01
       1.676000D+01           4.331180D-01
       6.207000D+00           3.502600D-01
       1.752000D+00           4.272800D-02
       6.882000D-01          -8.154000D-03
       2.384000D-01           2.381000D-03
 S    1   1.00
       1.752000D+00           1.000000D+00
 S    10   1.00
       1.533000D+04          -1.150000D-04
       2.299000D+03          -8.950000D-04
       5.224000D+02          -4.636000D-03
       1.473000D+02          -1.872400D-02
       4.755000D+01          -5.846300D-02
       1.676000D+01          -1.364630D-01
       6.207000D+00          -1.757400D-01
       1.752000D+00           1.609340D-01
       6.882000D-01           6.034180D-01
       2.384000D-01           3.787650D-01
 S    1   1.00
       2.384000D-01           1.000000D+00
 S    1   1.00
       0.0737600              1.0000000
 P    1   1.00
       7.156000D-01           1.000000D+00
 P    5   1.00
       3.446000D+01           1.592800D-02
       7.749000D+00           9.974000D-02
       2.280000D+00           3.104920D-01
       7.156000D-01           4.910260D-01
       2.140000D-01           3.363370D-01
 P    1   1.00
       2.140000D-01           1.000000D+00
 P    1   1.00
       0.0597400              1.0000000
 D    1   1.00
       2.314000D+00           1.000000D+00
 D    1   1.00
       6.450000D-01           1.000000D+00
 D    1   1.00
       0.2140000              1.0000000
 F    1   1.00
       1.428000D+00           1.0000000
 F    1   1.00
       0.5000000              1.0000000
 ****

      1 0
 S   1   1.00
     31.997      1.000000
 S   1   1.00
     16.010      1.000000
 S   1   1.00
     8.734      1.000000
 S   1   1.00
     1.957       1.000000
 P   1   1.00
     24.028      1.000000
 P   1   1.00
     13.795      1.000000
 P   1   1.00
     9.438       1.000000
 D   1   1.00
     19.016      1.000000
 D   1   1.00
     10.524       1.000000
 ****
      2 0
 S   1   1.00
     31.997      1.000000
 S   1   1.00
     16.010      1.000000
 S   1   1.00
     8.734      1.000000
 S   1   1.00
     1.957       1.000000
 P   1   1.00
     24.028      1.000000
 P   1   1.00
     13.795      1.000000
 P   1   1.00
     9.438       1.000000
 D   1   1.00
     19.016      1.000000
 D   1   1.00
     10.524       1.000000
 ****
      3 0
 S   1   1.00
     31.997      1.000000
 S   1   1.00
     16.010      1.000000
 S   1   1.00
     8.734      1.000000
 S   1   1.00
     1.957       1.000000
 P   1   1.00
     24.028      1.000000
 P   1   1.00
     13.795      1.000000
 P   1   1.00
     9.438       1.000000
 D   1   1.00
     19.016      1.000000
 D   1   1.00
     10.524       1.000000
 ****
      5 0
 S   1   1.00
     31.997      1.000000
 S   1   1.00
     16.010      1.000000
 S   1   1.00
     8.734      1.000000
 S   1   1.00
     1.957       1.000000
 P   1   1.00
     24.028      1.000000
 P   1   1.00
     13.795      1.000000
 P   1   1.00
     9.438       1.000000
 D   1   1.00
     19.016      1.000000
 D   1   1.00
     10.524       1.000000
 ****
      6 0
 S   1   1.00
     31.997      1.000000
 S   1   1.00
     16.010      1.000000
 S   1   1.00
     8.734      1.000000
 S   1   1.00
     1.957       1.000000
 P   1   1.00
     24.028      1.000000
 P   1   1.00
     13.795      1.000000
 P   1   1.00
     9.438       1.000000
 D   1   1.00
     19.016      1.000000
 D   1   1.00
     10.524       1.000000
 ****
      8 0
 S   1   1.00
     31.997      1.000000
 S   1   1.00
     16.010      1.000000
 S   1   1.00
     8.734      1.000000
 S   1   1.00
     1.957       1.000000
 P   1   1.00
     24.028      1.000000
 P   1   1.00
     13.795      1.000000
 P   1   1.00
     9.438       1.000000
 D   1   1.00
     19.016      1.000000
 D   1   1.00
     10.524       1.000000
 ****
      9 0
 S   1   1.00
     31.997      1.000000
 S   1   1.00
     16.010      1.000000
 S   1   1.00
     8.734      1.000000
 S   1   1.00
     1.957       1.000000
 P   1   1.00
     24.028      1.000000
 P   1   1.00
     13.795      1.000000
 P   1   1.00
     9.438       1.000000
 D   1   1.00
     19.016      1.000000
 D   1   1.00
     10.524       1.000000
 ****
      11 0
 S   1   1.00
     31.997      1.000000
 S   1   1.00
     16.010      1.000000
 S   1   1.00
     8.734      1.000000
 S   1   1.00
     1.957       1.000000
 P   1   1.00
     24.028      1.000000
 P   1   1.00
     13.795      1.000000
 P   1   1.00
     9.438       1.000000
 D   1   1.00
     19.016      1.000000
 D   1   1.00
     10.524       1.000000
 ****
      12 0
 S   1   1.00
     31.997      1.000000
 S   1   1.00
     16.010      1.000000
 S   1   1.00
     8.734      1.000000
 S   1   1.00
     1.957       1.000000
 P   1   1.00
     24.028      1.000000
 P   1   1.00
     13.795      1.000000
 P   1   1.00
     9.438       1.000000
 D   1   1.00
     19.016      1.000000
 D   1   1.00
     10.524       1.000000
 ****

