%mem=145gb
%nproc=40
#p rhf/gen test neo=gen gfinput guess=print 
# 
iop33(3=2,4=2,5=2) iop(5/73=0,5/81=0) nosymm

Protonated Water Tetramer, Ring Isomer

1,1
H        -0.0255612501   -1.2261549866   -0.8456761194
H         0.6556711085   -2.4990655048    0.0000000000
H        -0.0255612501   -1.2261549866    0.8456761194
O        -0.0619205770   -1.8495664016    0.0000000000
H        -0.0398156039    0.7239685462    1.4407904646
H        -0.4186617332   -0.1942124548    2.6692672633
O         0.0491994081   -0.1667893798    1.8271599993
H        -0.0398156039    0.7239685462   -1.4407904646
H        -0.4186617331   -0.1942124548   -2.6692672633
O         0.0491994080   -0.1667893798   -1.8271599993
H         0.7939620423    2.5644223508    0.0000000000
H        -0.7384116224    2.6648716439    0.0000000000
O        -0.0108540133    2.0293007818    0.0000000000

 H     0
 S    1   1.00
       3.258000D-01           1.000000D+00
 S    5   1.00
       3.387000D+01           6.068000D-03
       5.095000D+00           4.530800D-02
       1.159000D+00           2.028220D-01
       3.258000D-01           5.039030D-01
       1.027000D-01           3.834210D-01
 S    1   1.00
       1.027000D-01           1.000000D+00
 P    1   1.00
       1.407000D+00           1.000000D+00
 P    1   1.00
       3.880000D-01           1.000000D+00
 D    1   1.00
       1.057000D+00           1.0000000
 ****
 O     0
 S    10   1.00
       1.533000D+04           5.080000D-04
       2.299000D+03           3.929000D-03
       5.224000D+02           2.024300D-02
       1.473000D+02           7.918100D-02
       4.755000D+01           2.306870D-01
       1.676000D+01           4.331180D-01
       6.207000D+00           3.502600D-01
       1.752000D+00           4.272800D-02
       6.882000D-01          -8.154000D-03
       2.384000D-01           2.381000D-03
 S    1   1.00
       1.752000D+00           1.000000D+00
 S    10   1.00
       1.533000D+04          -1.150000D-04
       2.299000D+03          -8.950000D-04
       5.224000D+02          -4.636000D-03
       1.473000D+02          -1.872400D-02
       4.755000D+01          -5.846300D-02
       1.676000D+01          -1.364630D-01
       6.207000D+00          -1.757400D-01
       1.752000D+00           1.609340D-01
       6.882000D-01           6.034180D-01
       2.384000D-01           3.787650D-01
 S    1   1.00
       2.384000D-01           1.000000D+00
 S    1   1.00
       0.0737600              1.0000000
 P    1   1.00
       7.156000D-01           1.000000D+00
 P    5   1.00
       3.446000D+01           1.592800D-02
       7.749000D+00           9.974000D-02
       2.280000D+00           3.104920D-01
       7.156000D-01           4.910260D-01
       2.140000D-01           3.363370D-01
 P    1   1.00
       2.140000D-01           1.000000D+00
 P    1   1.00
       0.0597400              1.0000000
 D    1   1.00
       2.314000D+00           1.000000D+00
 D    1   1.00
       6.450000D-01           1.000000D+00
 D    1   1.00
       0.2140000              1.0000000
 F    1   1.00
       1.428000D+00           1.0000000
 F    1   1.00
       0.5000000              1.0000000
 ****

      1 0
 S   1   1.00
     31.997      1.000000
 S   1   1.00
     16.010      1.000000
 S   1   1.00
     8.734      1.000000
 S   1   1.00
     1.957       1.000000
 P   1   1.00
     24.028      1.000000
 P   1   1.00
     13.795      1.000000
 P   1   1.00
     9.438       1.000000
 D   1   1.00
     19.016      1.000000
 D   1   1.00
     10.524       1.000000
 ****
      2 0
 S   1   1.00
     31.997      1.000000
 S   1   1.00
     16.010      1.000000
 S   1   1.00
     8.734      1.000000
 S   1   1.00
     1.957       1.000000
 P   1   1.00
     24.028      1.000000
 P   1   1.00
     13.795      1.000000
 P   1   1.00
     9.438       1.000000
 D   1   1.00
     19.016      1.000000
 D   1   1.00
     10.524       1.000000
 ****
      3 0
 S   1   1.00
     31.997      1.000000
 S   1   1.00
     16.010      1.000000
 S   1   1.00
     8.734      1.000000
 S   1   1.00
     1.957       1.000000
 P   1   1.00
     24.028      1.000000
 P   1   1.00
     13.795      1.000000
 P   1   1.00
     9.438       1.000000
 D   1   1.00
     19.016      1.000000
 D   1   1.00
     10.524       1.000000
 ****
      5 0
 S   1   1.00
     31.997      1.000000
 S   1   1.00
     16.010      1.000000
 S   1   1.00
     8.734      1.000000
 S   1   1.00
     1.957       1.000000
 P   1   1.00
     24.028      1.000000
 P   1   1.00
     13.795      1.000000
 P   1   1.00
     9.438       1.000000
 D   1   1.00
     19.016      1.000000
 D   1   1.00
     10.524       1.000000
 ****
      6 0
 S   1   1.00
     31.997      1.000000
 S   1   1.00
     16.010      1.000000
 S   1   1.00
     8.734      1.000000
 S   1   1.00
     1.957       1.000000
 P   1   1.00
     24.028      1.000000
 P   1   1.00
     13.795      1.000000
 P   1   1.00
     9.438       1.000000
 D   1   1.00
     19.016      1.000000
 D   1   1.00
     10.524       1.000000
 ****
      8 0
 S   1   1.00
     31.997      1.000000
 S   1   1.00
     16.010      1.000000
 S   1   1.00
     8.734      1.000000
 S   1   1.00
     1.957       1.000000
 P   1   1.00
     24.028      1.000000
 P   1   1.00
     13.795      1.000000
 P   1   1.00
     9.438       1.000000
 D   1   1.00
     19.016      1.000000
 D   1   1.00
     10.524       1.000000
 ****
      9 0
 S   1   1.00
     31.997      1.000000
 S   1   1.00
     16.010      1.000000
 S   1   1.00
     8.734      1.000000
 S   1   1.00
     1.957       1.000000
 P   1   1.00
     24.028      1.000000
 P   1   1.00
     13.795      1.000000
 P   1   1.00
     9.438       1.000000
 D   1   1.00
     19.016      1.000000
 D   1   1.00
     10.524       1.000000
 ****
      11 0
 S   1   1.00
     31.997      1.000000
 S   1   1.00
     16.010      1.000000
 S   1   1.00
     8.734      1.000000
 S   1   1.00
     1.957       1.000000
 P   1   1.00
     24.028      1.000000
 P   1   1.00
     13.795      1.000000
 P   1   1.00
     9.438       1.000000
 D   1   1.00
     19.016      1.000000
 D   1   1.00
     10.524       1.000000
 ****
      12 0
 S   1   1.00
     31.997      1.000000
 S   1   1.00
     16.010      1.000000
 S   1   1.00
     8.734      1.000000
 S   1   1.00
     1.957       1.000000
 P   1   1.00
     24.028      1.000000
 P   1   1.00
     13.795      1.000000
 P   1   1.00
     9.438       1.000000
 D   1   1.00
     19.016      1.000000
 D   1   1.00
     10.524       1.000000
 ****

