$rem
   JOBTYPE Opt
   EXCHANGE CAM-B3LYP
   BASIS 6-31G(d,p)
   GUI=2
$end

$comment
PY101 enol GS
$end

$molecule
   0 1
   O        1.89903       -2.60023        0.00024
   O       -1.89862        2.59976        0.00028
   N        0.55824       -0.40541       -0.00003
   N       -0.55828        0.40520       -0.00002
   C        6.67966        1.65424       -0.00025
   C        6.64914        0.28470        0.00008
   C        5.46716        2.36745       -0.00057
   C        4.26198        1.70987       -0.00051
   C        5.40147       -1.84030        0.00041
   C        4.23297       -2.53392        0.00041
   C        5.42303       -0.41742        0.00013
   C        4.19409        0.29502       -0.00012
   C        2.99418       -1.84381        0.00019
   C        2.95453       -0.44420       -0.00003
   C        1.68003        0.23406       -0.00002
   C       -6.64923       -0.28430        0.00005
   C       -6.67998       -1.65383       -0.00026
   C       -5.46760       -2.36725       -0.00053
   C       -4.26230       -1.70986       -0.00047
   C       -4.19418       -0.29503       -0.00011
   C       -5.42301        0.41762        0.00011
   C       -5.40123        1.84049        0.00039
   C       -4.23262        2.53394        0.00042
   C       -2.99396        1.84360        0.00021
   C       -2.95452        0.44401       -0.00002
   C       -1.68005       -0.23430       -0.00007
   H        5.48188        3.45259       -0.00089
   H        3.35516        2.30171       -0.00080
   H        7.62495        2.18584       -0.00028
   H        7.57204       -0.28796        0.00030
   H        1.10778       -1.99729        0.00022
   H        4.20308       -3.61712        0.00060
   H        6.34889       -2.37126        0.00061
   H       -7.57204        0.28850        0.00025
   H       -7.62536       -2.18528       -0.00030
   H       -5.48249       -3.45238       -0.00082
   H       -3.35559       -2.30186       -0.00072
   H       -1.10761        1.99656        0.00023
   H       -6.34856        2.37160        0.00057
   H       -4.20254        3.61713        0.00061
   H        1.64815        1.32240       -0.00006
   H       -1.64820       -1.32263       -0.00013
$end

