$rem
   JOBTYPE Opt
   EXCHANGE B3LYP
   BASIS 6-31G(d,p)
   GUI=2
$end

$comment
PY101 keto S1
$end

$molecule
   0 1
   O        2.00849       -2.68827       -0.00000
   O       -1.69621        2.34759       -0.00000
   N        0.55763       -0.56843       -0.00000
   N       -0.57523        0.11021       -0.00000
   C        6.59386        1.78553        0.00000
   C        6.62291        0.41158        0.00000
   C        5.35714        2.44675        0.00000
   C        4.17974        1.73002        0.00000
   C        5.47642       -1.76498        0.00000
   C        4.33049       -2.51046        0.00000
   C        5.43232       -0.34477        0.00000
   C        4.17393        0.31951        0.00000
   C        3.07019       -1.88712       -0.00000
   C        2.95245       -0.46550        0.00000
   C        1.67745        0.15087        0.00000
   C       -6.68868       -0.03037        0.00000
   C       -6.85189       -1.40094        0.00000
   C       -5.72276       -2.23248        0.00000
   C       -4.45940       -1.68614        0.00000
   C       -4.25688       -0.28357        0.00000
   C       -5.41433        0.55346        0.00000
   C       -5.25929        1.97629        0.00000
   C       -4.03273        2.55739        0.00000
   C       -2.82638        1.77847       -0.00000
   C       -2.95164        0.31371        0.00000
   C       -1.77809       -0.47429       -0.00000
   H        5.32262        3.53115        0.00000
   H        3.24777        2.28167        0.00000
   H        7.51729        2.35462        0.00000
   H        7.57126       -0.11778        0.00000
   H        1.18993       -2.12396       -0.00000
   H        4.35024       -3.59406        0.00000
   H        6.44505       -2.25532        0.00000
   H       -7.55742        0.62154        0.00000
   H       -7.84702       -1.83277        0.00000
   H       -5.84272       -3.31066        0.00000
   H       -3.60924       -2.35762        0.00000
   H       -6.15658        2.58830        0.00000
   H       -3.90484        3.63389       -0.00000
   H        1.59398        1.23499        0.00000
   H       -1.78123       -1.55611        0.00000
   H       -0.66310        1.17729       -0.00000
$end

