$rem
   JOBTYPE Opt
   EXCHANGE CAM-B3LYP
   BASIS 6-31G(d,p)
   GUI=2
$end

$comment
PY101 enol S1
$end

$molecule
   0 1
   O        1.85175       -2.55124       -0.00005
   O       -1.85175        2.55124       -0.00003
   N        0.54574       -0.36965       -0.00003
   N       -0.54574        0.36965       -0.00003
   C        6.71630        1.60833        0.00003
   C        6.65717        0.23285        0.00004
   C        5.52701        2.34866       -0.00000
   C        4.30524        1.70697       -0.00002
   C        5.37532       -1.86650        0.00003
   C        4.18244       -2.53680        0.00001
   C        5.42280       -0.44569        0.00002
   C        4.20963        0.30047       -0.00000
   C        2.96497       -1.83461       -0.00002
   C        2.93909       -0.39877       -0.00001
   C        1.70457        0.29238       -0.00000
   C       -6.65717       -0.23285        0.00003
   C       -6.71630       -1.60833        0.00003
   C       -5.52701       -2.34866        0.00001
   C       -4.30524       -1.70696       -0.00001
   C       -4.20963       -0.30047        0.00000
   C       -5.42280        0.44569        0.00002
   C       -5.37532        1.86650        0.00002
   C       -4.18244        2.53680        0.00001
   C       -2.96497        1.83461       -0.00001
   C       -2.93909        0.39877       -0.00001
   C       -1.70457       -0.29239       -0.00001
   H        5.56256        3.43296       -0.00002
   H        3.40793        2.31311       -0.00005
   H        7.67530        2.11536        0.00004
   H        7.57069       -0.35461        0.00006
   H        1.07334       -1.90848       -0.00005
   H        4.13230       -3.61943        0.00000
   H        6.31042       -2.41810        0.00005
   H       -7.57069        0.35461        0.00005
   H       -7.67530       -2.11536        0.00003
   H       -5.56256       -3.43296       -0.00000
   H       -3.40793       -2.31311       -0.00002
   H       -1.07334        1.90848       -0.00004
   H       -6.31042        2.41810        0.00003
   H       -4.13230        3.61943        0.00000
   H        1.66671        1.37794        0.00002
   H       -1.66671       -1.37794        0.00000
$end

