$rem
   JOBTYPE Opt
   EXCHANGE B3LYP
   BASIS 6-31G(d,p)
   GUI=2
$end

$comment
PY101 keto S0
$end

$molecule
   0 1
   O        1.96302       -2.64756        0.00000
   O       -1.80834        2.46810        0.00000
   N        0.57196       -0.46040       -0.00000
   N       -0.57286        0.27683       -0.00000
   C        6.65059        1.71289       -0.00000
   C        6.64879        0.34341        0.00000
   C        5.42322        2.40056       -0.00000
   C        4.23243        1.71787       -0.00000
   C        5.44739       -1.80707        0.00000
   C        4.29285       -2.52425        0.00000
   C        5.43765       -0.38496        0.00000
   C        4.19351        0.30137        0.00000
   C        3.04119       -1.86047        0.00000
   C        2.96998       -0.46408        0.00000
   C        1.68268        0.19564        0.00000
   C       -6.68248       -0.15663        0.00000
   C       -6.79222       -1.53035       -0.00000
   C       -5.62744       -2.30332       -0.00000
   C       -4.38373       -1.70393       -0.00000
   C       -4.24452       -0.30444       -0.00000
   C       -5.42692        0.47024        0.00000
   C       -5.33177        1.91009        0.00000
   C       -4.15282        2.55989        0.00000
   C       -2.89309        1.83658        0.00000
   C       -2.95561        0.38238        0.00000
   C       -1.76096       -0.31808       -0.00000
   H        5.41487        3.48569       -0.00000
   H        3.31535        2.29377       -0.00000
   H        7.58441        2.26435       -0.00000
   H        7.58337       -0.20988        0.00000
   H        1.15850       -2.07672        0.00000
   H        4.28473       -3.60782        0.00000
   H        6.40556       -2.31810        0.00000
   H       -7.57349        0.46475        0.00000
   H       -7.76681       -2.00601       -0.00000
   H       -5.69656       -3.38640       -0.00000
   H       -3.50774       -2.34261       -0.00000
   H       -6.26173        2.47301        0.00000
   H       -4.08593        3.64177        0.00000
   H        1.65020        1.28476       -0.00000
   H       -1.72372       -1.40222       -0.00000
   H       -0.62444        1.32220        0.00000
$end

