#p rhf/sto-3g test neo=(nsh=2,lmax=2,est=2.0) gfinput guess=print nosymm 

h2co

0,1
c        0.000000    0.000000    0.000000
o        0.000000    0.000000    1.220000
h        0.935307    0.000000   -0.540000
h       -0.935307    0.000000   -0.540000

